25
    1     9     9
    2    10    10
    3    14    14
    4    18    18
    5     4     4
    6     4     4
    7     5     5
    8     8     8
    9     2     2
   10     5     5
   11    15    15
   12     5     5
   13    15    15
   14     5     5
   15     5     5
   16    11    11
   17    11    11
   18    10    10
   19    20    20
   20     6     6
   21     1     1
   22     3     3
   23    13    13
   24     3     3
   25    10    10
103
